
Gurobi 6.5.0 (win32) logging started 01/23/16 15:06:53

Optimize a model with 2 rows, 6 columns and 6 nonzeros
Coefficient statistics:
  Matrix range    [1e+00, 1e+00]
  Objective range [1e+00, 1e+00]
  Bounds range    [1e+00, 1e+00]
  RHS range       [2e+00, 2e+00]
Found heuristic solution: objective 4
Presolve removed 2 rows and 6 columns
Presolve time: 0.00s
Presolve: All rows and columns removed

Explored 0 nodes (0 simplex iterations) in 0.00 seconds
Thread count was 1 (of 4 available processors)

Optimal solution found (tolerance 1.00e-04)
Best objective 4.000000000000e+00, best bound 4.000000000000e+00, gap 0.0%

Gurobi 6.5.0 (win32) logging started 01/24/16 23:29:53

Optimize a model with 2 rows, 6 columns and 6 nonzeros
Coefficient statistics:
  Matrix range    [1e+00, 1e+00]
  Objective range [1e+00, 1e+00]
  Bounds range    [1e+00, 1e+00]
  RHS range       [2e+00, 2e+00]
Found heuristic solution: objective 4
Presolve removed 2 rows and 6 columns
Presolve time: 0.00s
Presolve: All rows and columns removed

Explored 0 nodes (0 simplex iterations) in 0.00 seconds
Thread count was 1 (of 4 available processors)

Optimal solution found (tolerance 1.00e-04)
Best objective 4.000000000000e+00, best bound 4.000000000000e+00, gap 0.0%

Gurobi 6.5.0 (win32) logging started 01/25/16 00:30:33

Optimize a model with 2 rows, 6 columns and 6 nonzeros
Coefficient statistics:
  Matrix range    [1e+00, 1e+00]
  Objective range [1e+00, 1e+00]
  Bounds range    [1e+00, 1e+00]
  RHS range       [2e+00, 2e+00]
Found heuristic solution: objective 4
Presolve removed 2 rows and 6 columns
Presolve time: 0.00s
Presolve: All rows and columns removed

Explored 0 nodes (0 simplex iterations) in 0.00 seconds
Thread count was 1 (of 4 available processors)

Optimal solution found (tolerance 1.00e-04)
Best objective 4.000000000000e+00, best bound 4.000000000000e+00, gap 0.0%

Gurobi 6.5.0 (win32) logging started 01/25/16 00:31:11

Optimize a model with 2 rows, 6 columns and 6 nonzeros
Coefficient statistics:
  Matrix range    [1e+00, 1e+00]
  Objective range [1e+00, 1e+00]
  Bounds range    [1e+00, 1e+00]
  RHS range       [2e+00, 2e+00]
Found heuristic solution: objective 4
Presolve removed 2 rows and 6 columns
Presolve time: 0.00s
Presolve: All rows and columns removed

Explored 0 nodes (0 simplex iterations) in 0.00 seconds
Thread count was 1 (of 4 available processors)

Optimal solution found (tolerance 1.00e-04)
Best objective 4.000000000000e+00, best bound 4.000000000000e+00, gap 0.0%

Gurobi 6.5.0 (win32) logging started 01/25/16 12:17:03

Optimize a model with 2 rows, 6 columns and 6 nonzeros
Coefficient statistics:
  Matrix range    [1e+00, 1e+00]
  Objective range [1e+00, 1e+00]
  Bounds range    [1e+00, 1e+00]
  RHS range       [2e+00, 2e+00]
Found heuristic solution: objective 4
Presolve removed 2 rows and 6 columns
Presolve time: 0.00s
Presolve: All rows and columns removed

Explored 0 nodes (0 simplex iterations) in 0.00 seconds
Thread count was 1 (of 4 available processors)

Optimal solution found (tolerance 1.00e-04)
Best objective 4.000000000000e+00, best bound 4.000000000000e+00, gap 0.0%

Gurobi 6.5.0 (win32) logging started 01/25/16 12:17:36

Optimize a model with 2 rows, 6 columns and 6 nonzeros
Coefficient statistics:
  Matrix range    [1e+00, 1e+00]
  Objective range [1e+00, 1e+00]
  Bounds range    [1e+00, 1e+00]
  RHS range       [2e+00, 2e+00]
Found heuristic solution: objective 4
Presolve removed 2 rows and 6 columns
Presolve time: 0.00s
Presolve: All rows and columns removed

Explored 0 nodes (0 simplex iterations) in 0.00 seconds
Thread count was 1 (of 4 available processors)

Optimal solution found (tolerance 1.00e-04)
Best objective 4.000000000000e+00, best bound 4.000000000000e+00, gap 0.0%

Gurobi 6.5.0 (win32) logging started 01/25/16 12:17:57

Optimize a model with 2 rows, 6 columns and 6 nonzeros
Coefficient statistics:
  Matrix range    [1e+00, 1e+00]
  Objective range [1e+00, 1e+00]
  Bounds range    [1e+00, 1e+00]
  RHS range       [2e+00, 2e+00]
Found heuristic solution: objective 2
Presolve removed 2 rows and 6 columns
Presolve time: 0.00s
Presolve: All rows and columns removed

Explored 0 nodes (0 simplex iterations) in 0.01 seconds
Thread count was 1 (of 4 available processors)

Optimal solution found (tolerance 1.00e-04)
Best objective 2.000000000000e+00, best bound 2.000000000000e+00, gap 0.0%

Gurobi 6.5.0 (win32) logging started 01/25/16 13:49:44

Optimize a model with 2 rows, 6 columns and 6 nonzeros
Coefficient statistics:
  Matrix range    [1e+00, 1e+00]
  Objective range [1e+00, 1e+00]
  Bounds range    [1e+00, 1e+00]
  RHS range       [2e+00, 2e+00]
Found heuristic solution: objective 4
Presolve removed 2 rows and 6 columns
Presolve time: 0.00s
Presolve: All rows and columns removed

Explored 0 nodes (0 simplex iterations) in 0.00 seconds
Thread count was 1 (of 4 available processors)

Optimal solution found (tolerance 1.00e-04)
Best objective 4.000000000000e+00, best bound 4.000000000000e+00, gap 0.0%

Gurobi 6.5.0 (win32) logging started 01/25/16 13:52:19

Optimize a model with 2 rows, 6 columns and 6 nonzeros
Coefficient statistics:
  Matrix range    [1e+00, 1e+00]
  Objective range [1e+00, 1e+00]
  Bounds range    [1e+00, 1e+00]
  RHS range       [2e+00, 2e+00]
Found heuristic solution: objective 4
Presolve removed 2 rows and 6 columns
Presolve time: 0.00s
Presolve: All rows and columns removed

Explored 0 nodes (0 simplex iterations) in 0.00 seconds
Thread count was 1 (of 4 available processors)

Optimal solution found (tolerance 1.00e-04)
Best objective 4.000000000000e+00, best bound 4.000000000000e+00, gap 0.0%

Gurobi 6.5.0 (win32) logging started 01/25/16 13:52:26

Optimize a model with 2 rows, 6 columns and 6 nonzeros
Coefficient statistics:
  Matrix range    [1e+00, 1e+00]
  Objective range [1e+00, 1e+00]
  Bounds range    [1e+00, 1e+00]
  RHS range       [2e+00, 2e+00]
Found heuristic solution: objective 4
Presolve removed 2 rows and 6 columns
Presolve time: 0.00s
Presolve: All rows and columns removed

Explored 0 nodes (0 simplex iterations) in 0.00 seconds
Thread count was 1 (of 4 available processors)

Optimal solution found (tolerance 1.00e-04)
Best objective 4.000000000000e+00, best bound 4.000000000000e+00, gap 0.0%

Gurobi 6.5.0 (win32) logging started 01/25/16 22:18:56


Gurobi 6.5.0 (win32) logging started 01/25/16 22:19:37


Gurobi 6.5.0 (win32) logging started 01/25/16 22:24:25


Gurobi 6.5.0 (win32) logging started 01/25/16 22:25:16


Gurobi 6.5.0 (win32) logging started 01/25/16 22:25:43


Gurobi 6.5.0 (win32) logging started 01/25/16 22:27:07


Gurobi 6.5.0 (win32) logging started 01/25/16 22:32:49


Gurobi 6.5.0 (win32) logging started 01/25/16 22:34:29


Gurobi 6.5.0 (win32) logging started 01/25/16 22:35:38


Gurobi 6.5.0 (win32) logging started 01/25/16 22:39:51

Optimize a model with 2 rows, 447 columns and 6 nonzeros
Coefficient statistics:
  Matrix range    [1e+00, 1e+00]
  Objective range [1e+00, 1e+00]
  Bounds range    [1e+00, 1e+00]
  RHS range       [2e+00, 2e+00]
Found heuristic solution: objective 4
Presolve removed 2 rows and 447 columns
Presolve time: 0.00s
Presolve: All rows and columns removed

Explored 0 nodes (0 simplex iterations) in 0.00 seconds
Thread count was 1 (of 4 available processors)

Optimal solution found (tolerance 1.00e-04)
Best objective 4.000000000000e+00, best bound 4.000000000000e+00, gap 0.0%

Gurobi 6.5.0 (win32) logging started 01/25/16 22:46:55


Gurobi 6.5.0 (win32) logging started 01/25/16 23:15:29

Optimize a model with 2 rows, 10590 columns and 6 nonzeros
Coefficient statistics:
  Matrix range    [1e+00, 1e+00]
  Objective range [1e+00, 1e+00]
  Bounds range    [1e+00, 1e+00]
  RHS range       [2e+00, 2e+00]
Found heuristic solution: objective 4
Presolve removed 2 rows and 10590 columns
Presolve time: 0.00s
Presolve: All rows and columns removed

Explored 0 nodes (0 simplex iterations) in 0.01 seconds
Thread count was 1 (of 4 available processors)

Optimal solution found (tolerance 1.00e-04)
Best objective 4.000000000000e+00, best bound 4.000000000000e+00, gap 0.0%

Gurobi 6.5.0 (win32) logging started 01/25/16 23:20:29


Gurobi 6.5.0 (win32) logging started 01/25/16 23:21:36


Gurobi 6.5.0 (win32) logging started 01/25/16 23:22:40

Optimize a model with 2 rows, 10590 columns and 6 nonzeros
Coefficient statistics:
  Matrix range    [1e+00, 1e+00]
  Objective range [1e+00, 1e+00]
  Bounds range    [1e+00, 1e+00]
  RHS range       [2e+00, 2e+00]
Found heuristic solution: objective 4
Presolve removed 2 rows and 10590 columns
Presolve time: 0.01s
Presolve: All rows and columns removed

Explored 0 nodes (0 simplex iterations) in 0.01 seconds
Thread count was 1 (of 4 available processors)

Optimal solution found (tolerance 1.00e-04)
Best objective 4.000000000000e+00, best bound 4.000000000000e+00, gap 0.0%

Gurobi 6.5.0 (win32) logging started 01/30/16 00:07:13


Gurobi 6.5.0 (win32) logging started 01/30/16 00:07:36

Optimize a model with 2 rows, 21174 columns and 6 nonzeros
Coefficient statistics:
  Matrix range    [1e+00, 1e+00]
  Objective range [0e+00, 0e+00]
  Bounds range    [1e+00, 1e+00]
  RHS range       [2e+00, 2e+00]
Found heuristic solution: objective 0
Presolve removed 2 rows and 21174 columns
Presolve time: 0.01s
Presolve: All rows and columns removed

Explored 0 nodes (0 simplex iterations) in 0.01 seconds
Thread count was 1 (of 4 available processors)

Optimal solution found (tolerance 1.00e-04)
Best objective 0.000000000000e+00, best bound 0.000000000000e+00, gap 0.0%
